(declare-const x0 Real)
(declare-const x1 Real)
(declare-const x2 Real)
(declare-const x3 Real)
(declare-const x4 Real)
(declare-const x5 Real)
(declare-const x6 Real)
(declare-const x7 Real)
(declare-const x8 Real)
(declare-const x9 Real)

(assert (<= (- 120.0) (+ (* 7.0 x5) (+ (* (- 3.0) (^ (+ (- 2.0) x0) 2.0)) (* (- 4.0) (^ (+ (- 3.0) x1) 2.0)) (* (- 2.0) (^ x2 2.0))))))
(assert (<= (- 40.0) (+ (* (- 8.0) x1) (* 2.0 x5) (- (* (- 5.0) (^ x0 2.0)) (^ (+ (- 6.0) x2) 2.0)))))
(assert (<= (- 30.0) (+ (* 1.0 x6) (+ (* (- 0.500000) (^ (+ (- 8.0) x0) 2.0)) (* (- 2.0) (^ (+ (- 4.0) x1) 2.0)) (* (- 3.0) (^ x3 2.0))))))
(assert (<= 0.0 (+ (* (- 14.0) x3) (* 6.0 x6) (+ (- (^ x0 2.0)) (* (- 2.0) (^ (+ (- 2.0) x1) 2.0)) (* (* 2.0 x0) x1)))))
(assert (<= 0.0 (+ (* 3.0 x0) (* (- 6.0) x1) (* 7.0 x9) (* (- 12.0) (^ (+ (- 8.0) x4) 2.0)))))
(assert (<= (- 105.0) (+ (* (- 4.0) x0) (* (- 5.0) x1) (* 3.0 x7) (* (- 9.0) x8))))
(assert (<= 0.0 (+ (* (- 10.0) x0) (* 8.0 x1) (* 17.0 x7) (* (- 2.0) x8))))
(assert (<= (- 12.0) (+ (* 8.0 x0) (* (- 2.0) x1) (* (- 5.0) x4) (* 2.0 x9))))

(minimize
	(+ (* (- 14.0) x0) (* (- 16.0) x1) (+ (^ x0 2.0) (^ x1 2.0) (* x0 x1) (^ (+ (- 10.0) x2) 2.0) (* 4.0 (^ (+ (- 5.0) x5) 2.0)) (^ (+ (- 3.0) x3) 2.0) (* 2.0 (^ (+ (- 1.0) x6) 2.0)) (* 5.0 (^ x7 2.0)) (* 7.0 (^ (+ (- 11.0) x8) 2.0)) (* 2.0 (^ (+ (- 10.0) x4) 2.0)) (^ (+ (- 7.0) x9) 2.0) 45.0))
)
(check-sat)
(get-objectives)
(exit)

